\ Model MTZ_MODEL
\ LP format - for model browsing. Use MPS format to capture full model detail.
Minimize
  p[0,1] + p[0,2] + p[0,3] + p[0,4] + p[1,0] + p[1,2] + p[1,3] + p[1,4]
   + p[2,0] + p[2,1] + p[2,3] + p[2,4] + p[3,0] + p[3,1] + p[3,2] + p[3,4]
   + p[4,0] + p[4,1] + p[4,2] + p[4,3] + dc[0] + dc[1] + dc[2] + dc[3]
   + dc[4] + 0 difc[0,0] + 0 difc[0,1] + 0 difc[1,0] + 0 difc[1,1]
   + 0 difc[2,0] + 0 difc[2,1] + 0 difc[3,0] + 0 difc[3,1] + 0 difc[4,0]
   + 0 difc[4,1]
Subject To
 p2: p[0,1] - 61.57955368229142 z[0,1] >= 0
 p3: p[0,1] - 61.96109234848496 z[0,1] - dcc[0,1] >= -61.96109234848496
 R2: dcc[0,1] <= 61.96109234848496
 R3: x[0,1,0] - x[1,0,0] + dif[0,1,0] >= 0
 R4: - x[0,1,0] + x[1,0,0] + dif[0,1,0] >= 0
 R5: x[0,1,1] - x[1,0,1] + dif[0,1,1] >= 0
 R6: - x[0,1,1] + x[1,0,1] + dif[0,1,1] >= 0
 p2: p[0,2] - 42.47182929083789 z[0,2] >= 0
 p3: p[0,2] - 45.37244319861671 z[0,2] - dcc[0,2] >= -45.37244319861671
 R9: dcc[0,2] <= 45.37244319861671
 R10: x[0,1,0] - x[2,0,0] + dif[0,2,0] >= 0
 R11: - x[0,1,0] + x[2,0,0] + dif[0,2,0] >= 0
 R12: x[0,1,1] - x[2,0,1] + dif[0,2,1] >= 0
 R13: - x[0,1,1] + x[2,0,1] + dif[0,2,1] >= 0
 p2: p[0,3] - 80.58638129773553 z[0,3] >= 0
 p3: p[0,3] - 83.47158030251359 z[0,3] - dcc[0,3] >= -83.47158030251359
 R16: dcc[0,3] <= 83.47158030251359
 R17: x[0,1,0] - x[3,0,0] + dif[0,3,0] >= 0
 R18: - x[0,1,0] + x[3,0,0] + dif[0,3,0] >= 0
 R19: x[0,1,1] - x[3,0,1] + dif[0,3,1] >= 0
 R20: - x[0,1,1] + x[3,0,1] + dif[0,3,1] >= 0
 p2: p[0,4] - 80.04765017642498 z[0,4] >= 0
 p3: p[0,4] - 85.53336525349883 z[0,4] - dcc[0,4] >= -85.53336525349883
 R23: dcc[0,4] <= 85.53336525349883
 R24: x[0,1,0] - x[4,0,0] + dif[0,4,0] >= 0
 R25: - x[0,1,0] + x[4,0,0] + dif[0,4,0] >= 0
 R26: x[0,1,1] - x[4,0,1] + dif[0,4,1] >= 0
 R27: - x[0,1,1] + x[4,0,1] + dif[0,4,1] >= 0
 p2: p[1,0] - 61.57955368229142 z[1,0] >= 0
 p3: p[1,0] - 61.96109234848496 z[1,0] - dcc[1,0] >= -61.96109234848496
 R30: dcc[1,0] <= 61.96109234848496
 R31: - x[0,0,0] + x[1,1,0] + dif[1,0,0] >= 0
 R32: x[0,0,0] - x[1,1,0] + dif[1,0,0] >= 0
 R33: - x[0,0,1] + x[1,1,1] + dif[1,0,1] >= 0
 R34: x[0,0,1] - x[1,1,1] + dif[1,0,1] >= 0
 p2: p[1,2] - 39.43150430925922 z[1,2] >= 0
 p3: p[1,2] - 42.42379616017198 z[1,2] - dcc[1,2] >= -42.42379616017198
 R37: dcc[1,2] <= 42.42379616017198
 R38: x[1,1,0] - x[2,0,0] + dif[1,2,0] >= 0
 R39: - x[1,1,0] + x[2,0,0] + dif[1,2,0] >= 0
 R40: x[1,1,1] - x[2,0,1] + dif[1,2,1] >= 0
 R41: - x[1,1,1] + x[2,0,1] + dif[1,2,1] >= 0
 p2: p[1,3] - 20.69759256958708 z[1,3] >= 0
 p3: p[1,3] - 24.5073932898461 z[1,3] - dcc[1,3] >= -24.5073932898461
 R44: dcc[1,3] <= 24.5073932898461
 R45: x[1,1,0] - x[3,0,0] + dif[1,3,0] >= 0
 R46: - x[1,1,0] + x[3,0,0] + dif[1,3,0] >= 0
 R47: x[1,1,1] - x[3,0,1] + dif[1,3,1] >= 0
 R48: - x[1,1,1] + x[3,0,1] + dif[1,3,1] >= 0
 p2: p[1,4] - 49.08166596176729 z[1,4] >= 0
 p3: p[1,4] - 55.36493969157582 z[1,4] - dcc[1,4] >= -55.36493969157582
 R51: dcc[1,4] <= 55.36493969157582
 R52: x[1,1,0] - x[4,0,0] + dif[1,4,0] >= 0
 R53: - x[1,1,0] + x[4,0,0] + dif[1,4,0] >= 0
 R54: x[1,1,1] - x[4,0,1] + dif[1,4,1] >= 0
 R55: - x[1,1,1] + x[4,0,1] + dif[1,4,1] >= 0
 p2: p[2,0] - 42.47182929083789 z[2,0] >= 0
 p3: p[2,0] - 45.37244319861671 z[2,0] - dcc[2,0] >= -45.37244319861671
 R58: dcc[2,0] <= 45.37244319861671
 R59: - x[0,0,0] + x[2,1,0] + dif[2,0,0] >= 0
 R60: x[0,0,0] - x[2,1,0] + dif[2,0,0] >= 0
 R61: - x[0,0,1] + x[2,1,1] + dif[2,0,1] >= 0
 R62: x[0,0,1] - x[2,1,1] + dif[2,0,1] >= 0
 p2: p[2,1] - 39.43150430925922 z[2,1] >= 0
 p3: p[2,1] - 42.42379616017198 z[2,1] - dcc[2,1] >= -42.42379616017198
 R65: dcc[2,1] <= 42.42379616017198
 R66: - x[1,0,0] + x[2,1,0] + dif[2,1,0] >= 0
 R67: x[1,0,0] - x[2,1,0] + dif[2,1,0] >= 0
 R68: - x[1,0,1] + x[2,1,1] + dif[2,1,1] >= 0
 R69: x[1,0,1] - x[2,1,1] + dif[2,1,1] >= 0
 p2: p[2,3] - 47.91925316870672 z[2,3] >= 0
 p3: p[2,3] - 53.91566175197604 z[2,3] - dcc[2,3] >= -53.91566175197604
 R72: dcc[2,3] <= 53.91566175197604
 R73: x[2,1,0] - x[3,0,0] + dif[2,3,0] >= 0
 R74: - x[2,1,0] + x[3,0,0] + dif[2,3,0] >= 0
 R75: x[2,1,1] - x[3,0,1] + dif[2,3,1] >= 0
 R76: - x[2,1,1] + x[3,0,1] + dif[2,3,1] >= 0
 p2: p[2,4] - 35.01812045265672 z[2,4] >= 0
 p3: p[2,4] - 42.9506776032346 z[2,4] - dcc[2,4] >= -42.9506776032346
 R79: dcc[2,4] <= 42.9506776032346
 R80: x[2,1,0] - x[4,0,0] + dif[2,4,0] >= 0
 R81: - x[2,1,0] + x[4,0,0] + dif[2,4,0] >= 0
 R82: x[2,1,1] - x[4,0,1] + dif[2,4,1] >= 0
 R83: - x[2,1,1] + x[4,0,1] + dif[2,4,1] >= 0
 p2: p[3,0] - 80.58638129773553 z[3,0] >= 0
 p3: p[3,0] - 83.47158030251359 z[3,0] - dcc[3,0] >= -83.47158030251359
 R86: dcc[3,0] <= 83.47158030251359
 R87: - x[0,0,0] + x[3,1,0] + dif[3,0,0] >= 0
 R88: x[0,0,0] - x[3,1,0] + dif[3,0,0] >= 0
 R89: - x[0,0,1] + x[3,1,1] + dif[3,0,1] >= 0
 R90: x[0,0,1] - x[3,1,1] + dif[3,0,1] >= 0
 p2: p[3,1] - 20.69759256958708 z[3,1] >= 0
 p3: p[3,1] - 24.5073932898461 z[3,1] - dcc[3,1] >= -24.5073932898461
 R93: dcc[3,1] <= 24.5073932898461
 R94: - x[1,0,0] + x[3,1,0] + dif[3,1,0] >= 0
 R95: x[1,0,0] - x[3,1,0] + dif[3,1,0] >= 0
 R96: - x[1,0,1] + x[3,1,1] + dif[3,1,1] >= 0
 R97: x[1,0,1] - x[3,1,1] + dif[3,1,1] >= 0
 p2: p[3,2] - 47.91925316870672 z[3,2] >= 0
 p3: p[3,2] - 53.91566175197604 z[3,2] - dcc[3,2] >= -53.91566175197604
 R100: dcc[3,2] <= 53.91566175197604
 R101: - x[2,0,0] + x[3,1,0] + dif[3,2,0] >= 0
 R102: x[2,0,0] - x[3,1,0] + dif[3,2,0] >= 0
 R103: - x[2,0,1] + x[3,1,1] + dif[3,2,1] >= 0
 R104: x[2,0,1] - x[3,1,1] + dif[3,2,1] >= 0
 p2: p[3,4] - 40.15316526551796 z[3,4] >= 0
 p3: p[3,4] - 49.13668975088667 z[3,4] - dcc[3,4] >= -49.13668975088667
 R107: dcc[3,4] <= 49.13668975088667
 R108: x[3,1,0] - x[4,0,0] + dif[3,4,0] >= 0
 R109: - x[3,1,0] + x[4,0,0] + dif[3,4,0] >= 0
 R110: x[3,1,1] - x[4,0,1] + dif[3,4,1] >= 0
 R111: - x[3,1,1] + x[4,0,1] + dif[3,4,1] >= 0
 p2: p[4,0] - 80.04765017642498 z[4,0] >= 0
 p3: p[4,0] - 85.53336525349883 z[4,0] - dcc[4,0] >= -85.53336525349883
 R114: dcc[4,0] <= 85.53336525349883
 R115: - x[0,0,0] + x[4,1,0] + dif[4,0,0] >= 0
 R116: x[0,0,0] - x[4,1,0] + dif[4,0,0] >= 0
 R117: - x[0,0,1] + x[4,1,1] + dif[4,0,1] >= 0
 R118: x[0,0,1] - x[4,1,1] + dif[4,0,1] >= 0
 p2: p[4,1] - 49.08166596176729 z[4,1] >= 0
 p3: p[4,1] - 55.36493969157582 z[4,1] - dcc[4,1] >= -55.36493969157582
 R121: dcc[4,1] <= 55.36493969157582
 R122: - x[1,0,0] + x[4,1,0] + dif[4,1,0] >= 0
 R123: x[1,0,0] - x[4,1,0] + dif[4,1,0] >= 0
 R124: - x[1,0,1] + x[4,1,1] + dif[4,1,1] >= 0
 R125: x[1,0,1] - x[4,1,1] + dif[4,1,1] >= 0
 p2: p[4,2] - 35.01812045265672 z[4,2] >= 0
 p3: p[4,2] - 42.9506776032346 z[4,2] - dcc[4,2] >= -42.9506776032346
 R128: dcc[4,2] <= 42.9506776032346
 R129: - x[2,0,0] + x[4,1,0] + dif[4,2,0] >= 0
 R130: x[2,0,0] - x[4,1,0] + dif[4,2,0] >= 0
 R131: - x[2,0,1] + x[4,1,1] + dif[4,2,1] >= 0
 R132: x[2,0,1] - x[4,1,1] + dif[4,2,1] >= 0
 p2: p[4,3] - 40.15316526551796 z[4,3] >= 0
 p3: p[4,3] - 49.13668975088667 z[4,3] - dcc[4,3] >= -49.13668975088667
 R135: dcc[4,3] <= 49.13668975088667
 R136: - x[3,0,0] + x[4,1,0] + dif[4,3,0] >= 0
 R137: x[3,0,0] - x[4,1,0] + dif[4,3,0] >= 0
 R138: - x[3,0,1] + x[4,1,1] + dif[4,3,1] >= 0
 R139: x[3,0,1] - x[4,1,1] + dif[4,3,1] >= 0
 R140: z[0,1] + z[0,2] + z[0,3] + z[0,4] = 1
 R141: z[1,0] + z[1,2] + z[1,3] + z[1,4] = 1
 R142: z[2,0] + z[2,1] + z[2,3] + z[2,4] = 1
 R143: z[3,0] + z[3,1] + z[3,2] + z[3,4] = 1
 R144: z[4,0] + z[4,1] + z[4,2] + z[4,3] = 1
 R145: z[1,0] + z[2,0] + z[3,0] + z[4,0] = 1
 R146: z[0,1] + z[2,1] + z[3,1] + z[4,1] = 1
 R147: z[0,2] + z[1,2] + z[3,2] + z[4,2] = 1
 R148: z[0,3] + z[1,3] + z[2,3] + z[4,3] = 1
 R149: z[0,4] + z[1,4] + z[2,4] + z[3,4] = 1
 rest7: z[0,1] + z[1,0] <= 1
 rest7: z[0,2] + z[2,0] <= 1
 rest7: z[0,3] + z[3,0] <= 1
 rest7: z[0,4] + z[4,0] <= 1
 rest7: z[0,1] + z[1,0] <= 1
 rest7: z[1,2] + z[2,1] <= 1
 rest7: z[1,3] + z[3,1] <= 1
 rest7: z[1,4] + z[4,1] <= 1
 rest7: z[0,2] + z[2,0] <= 1
 rest7: z[1,2] + z[2,1] <= 1
 rest7: z[2,3] + z[3,2] <= 1
 rest7: z[2,4] + z[4,2] <= 1
 rest7: z[0,3] + z[3,0] <= 1
 rest7: z[1,3] + z[3,1] <= 1
 rest7: z[2,3] + z[3,2] <= 1
 rest7: z[3,4] + z[4,3] <= 1
 rest7: z[0,4] + z[4,0] <= 1
 rest7: z[1,4] + z[4,1] <= 1
 rest7: z[2,4] + z[4,2] <= 1
 rest7: z[3,4] + z[4,3] <= 1
 R170: 5 z[1,2] + sc[1] - sc[2] <= 4
 R171: 5 z[1,3] + sc[1] - sc[3] <= 4
 R172: 5 z[1,4] + sc[1] - sc[4] <= 4
 R173: 5 z[2,1] - sc[1] + sc[2] <= 4
 R174: 5 z[2,3] + sc[2] - sc[3] <= 4
 R175: 5 z[2,4] + sc[2] - sc[4] <= 4
 R176: 5 z[3,1] - sc[1] + sc[3] <= 4
 R177: 5 z[3,2] - sc[2] + sc[3] <= 4
 R178: 5 z[3,4] + sc[3] - sc[4] <= 4
 R179: 5 z[4,1] - sc[1] + sc[4] <= 4
 R180: 5 z[4,2] - sc[2] + sc[4] <= 4
 R181: 5 z[4,3] - sc[3] + sc[4] <= 4
 rest10: sc[0] = 0
 rest11: sc[1] >= 1
 rest11: sc[2] >= 1
 rest11: sc[3] >= 1
 rest11: sc[4] >= 1
 u0: landa[0,0] - landa[0,1] + min[0] - max[0] = 0
 u1: min[0] + max[0] = 1
 u2: u[0] + max[0] <= 1
 u3: - u[0] + min[0] <= 0
 R191: dc[0] = 0.1260071183537407
 R192: landa[0,0] - sublanda[0,0,1] - 2 s[0,0,0] >= -1
 R193: landa[0,0] - sublanda[0,0,1] + 2 s[0,0,0] <= 3
 R194: sublanda[0,0,0] - s[0,0,0] <= 0
 R195: sublanda[0,0,1] - s[0,0,0] <= 0
 R196: s[0,0,0] = 1
 R197: sublanda[0,0,0] + sublanda[0,0,1] = 1
 seg1: x[0,0,0] - 93.93404955927141 sublanda[0,0,0]
   - 94.05929031793328 sublanda[0,0,1] = 0
 seg1: x[0,0,1] - 10.31406172441074 sublanda[0,0,0]
   - 10.32793782781246 sublanda[0,0,1] = 0
 R200: landa[0,1] - sublanda[0,1,1] - 2 s[0,1,0] >= -1
 R201: landa[0,1] - sublanda[0,1,1] + 2 s[0,1,0] <= 3
 R202: sublanda[0,1,0] - s[0,1,0] <= 0
 R203: sublanda[0,1,1] - s[0,1,0] <= 0
 R204: s[0,1,0] = 1
 R205: sublanda[0,1,0] + sublanda[0,1,1] = 1
 seg1: x[0,1,0] - 93.93404955927141 sublanda[0,1,0]
   - 94.05929031793328 sublanda[0,1,1] = 0
 seg1: x[0,1,1] - 10.31406172441074 sublanda[0,1,0]
   - 10.32793782781246 sublanda[0,1,1] = 0
 u0: landa[1,0] - landa[1,1] + min[1] - max[1] = 0
 u1: min[1] + max[1] = 2
 u2: 2 u[1] + max[1] <= 2
 u3: - 2 u[1] + min[1] <= 0
 R212: dc[1] = 0.6773523530612984
 R213: landa[1,0] - sublanda[1,0,1] - 3 s[1,0,0] >= -2
 R214: landa[1,0] - sublanda[1,0,1] + 3 s[1,0,0] <= 4
 R215: landa[1,0] - sublanda[1,0,2] - 3 s[1,0,1] >= -1
 R216: landa[1,0] - sublanda[1,0,2] + 3 s[1,0,1] <= 5
 R217: sublanda[1,0,0] - s[1,0,0] <= 0
 R218: sublanda[1,0,2] - s[1,0,1] <= 0
 R219: sublanda[1,0,1] - s[1,0,0] - s[1,0,1] <= 0
 R220: s[1,0,0] + s[1,0,1] = 1
 R221: sublanda[1,0,0] + sublanda[1,0,1] + sublanda[1,0,2] = 1
 seg1: x[1,0,0] - 62.73129800488525 sublanda[1,0,0]
   - 62.62962769099374 sublanda[1,0,1] - 62.93313370905365 sublanda[1,0,2]
   = 0
 seg1: x[1,0,1] - 63.40294688077339 sublanda[1,0,0]
   - 63.72600213892999 sublanda[1,0,1] - 63.8762873662507 sublanda[1,0,2]
   = 0
 R224: landa[1,1] - sublanda[1,1,1] - 3 s[1,1,0] >= -2
 R225: landa[1,1] - sublanda[1,1,1] + 3 s[1,1,0] <= 4
 R226: landa[1,1] - sublanda[1,1,2] - 3 s[1,1,1] >= -1
 R227: landa[1,1] - sublanda[1,1,2] + 3 s[1,1,1] <= 5
 R228: sublanda[1,1,0] - s[1,1,0] <= 0
 R229: sublanda[1,1,2] - s[1,1,1] <= 0
 R230: sublanda[1,1,1] - s[1,1,0] - s[1,1,1] <= 0
 R231: s[1,1,0] + s[1,1,1] = 1
 R232: sublanda[1,1,0] + sublanda[1,1,1] + sublanda[1,1,2] = 1
 seg1: x[1,1,0] - 62.73129800488525 sublanda[1,1,0]
   - 62.62962769099374 sublanda[1,1,1] - 62.93313370905365 sublanda[1,1,2]
   = 0
 seg1: x[1,1,1] - 63.40294688077339 sublanda[1,1,0]
   - 63.72600213892999 sublanda[1,1,1] - 63.8762873662507 sublanda[1,1,2]
   = 0
 u0: landa[2,0] - landa[2,1] + min[2] - max[2] = 0
 u1: min[2] + max[2] = 2
 u2: 2 u[2] + max[2] <= 2
 u3: - 2 u[2] + min[2] <= 0
 R239: dc[2] = 5.012164516870871
 R240: landa[2,0] - sublanda[2,0,1] - 3 s[2,0,0] >= -2
 R241: landa[2,0] - sublanda[2,0,1] + 3 s[2,0,0] <= 4
 R242: landa[2,0] - sublanda[2,0,2] - 3 s[2,0,1] >= -1
 R243: landa[2,0] - sublanda[2,0,2] + 3 s[2,0,1] <= 5
 R244: sublanda[2,0,0] - s[2,0,0] <= 0
 R245: sublanda[2,0,2] - s[2,0,1] <= 0
 R246: sublanda[2,0,1] - s[2,0,0] - s[2,0,1] <= 0
 R247: s[2,0,0] + s[2,0,1] = 1
 R248: sublanda[2,0,0] + sublanda[2,0,1] + sublanda[2,0,2] = 1
 seg1: x[2,0,0] - 50.57817514031173 sublanda[2,0,0]
   - 51.62803192119699 sublanda[2,0,1] - 54.03831553109985 sublanda[2,0,2]
   = 0
 seg1: x[2,0,1] - 23.29139511057884 sublanda[2,0,0]
   - 25.56697174643931 sublanda[2,0,1] - 24.88069104156813 sublanda[2,0,2]
   = 0
 R251: landa[2,1] - sublanda[2,1,1] - 3 s[2,1,0] >= -2
 R252: landa[2,1] - sublanda[2,1,1] + 3 s[2,1,0] <= 4
 R253: landa[2,1] - sublanda[2,1,2] - 3 s[2,1,1] >= -1
 R254: landa[2,1] - sublanda[2,1,2] + 3 s[2,1,1] <= 5
 R255: sublanda[2,1,0] - s[2,1,0] <= 0
 R256: sublanda[2,1,2] - s[2,1,1] <= 0
 R257: sublanda[2,1,1] - s[2,1,0] - s[2,1,1] <= 0
 R258: s[2,1,0] + s[2,1,1] = 1
 R259: sublanda[2,1,0] + sublanda[2,1,1] + sublanda[2,1,2] = 1
 seg1: x[2,1,0] - 50.57817514031173 sublanda[2,1,0]
   - 51.62803192119699 sublanda[2,1,1] - 54.03831553109985 sublanda[2,1,2]
   = 0
 seg1: x[2,1,1] - 23.29139511057884 sublanda[2,1,0]
   - 25.56697174643931 sublanda[2,1,1] - 24.88069104156813 sublanda[2,1,2]
   = 0
 u0: landa[3,0] - landa[3,1] + min[3] - max[3] = 0
 u1: min[3] + max[3] = 3
 u2: 3 u[3] + max[3] <= 3
 u3: - 3 u[3] + min[3] <= 0
 R266: dc[3] = 8.087739260110462
 R267: landa[3,0] - sublanda[3,0,1] - 4 s[3,0,0] >= -3
 R268: landa[3,0] - sublanda[3,0,1] + 4 s[3,0,0] <= 5
 R269: landa[3,0] - sublanda[3,0,2] - 4 s[3,0,1] >= -2
 R270: landa[3,0] - sublanda[3,0,2] + 4 s[3,0,1] <= 6
 R271: landa[3,0] - sublanda[3,0,3] - 4 s[3,0,2] >= -1
 R272: landa[3,0] - sublanda[3,0,3] + 4 s[3,0,2] <= 7
 R273: sublanda[3,0,0] - s[3,0,0] <= 0
 R274: sublanda[3,0,3] - s[3,0,2] <= 0
 R275: sublanda[3,0,1] - s[3,0,0] - s[3,0,1] <= 0
 R276: sublanda[3,0,2] - s[3,0,1] - s[3,0,2] <= 0
 R277: s[3,0,0] + s[3,0,1] + s[3,0,2] = 1
 R278: sublanda[3,0,0] + sublanda[3,0,1] + sublanda[3,0,2]
   + sublanda[3,0,3] = 1
 seg1: x[3,0,0] - 43.49227321424615 sublanda[3,0,0]
   - 44.93368478214198 sublanda[3,0,1] - 42.90507256701643 sublanda[3,0,2]
   - 40.83782824823503 sublanda[3,0,3] = 0
 seg1: x[3,0,1] - 76.73939391359926 sublanda[3,0,0]
   - 74.46117529744426 sublanda[3,0,1] - 72.68559656032711 sublanda[3,0,2]
   - 74.41604398730234 sublanda[3,0,3] = 0
 R281: landa[3,1] - sublanda[3,1,1] - 4 s[3,1,0] >= -3
 R282: landa[3,1] - sublanda[3,1,1] + 4 s[3,1,0] <= 5
 R283: landa[3,1] - sublanda[3,1,2] - 4 s[3,1,1] >= -2
 R284: landa[3,1] - sublanda[3,1,2] + 4 s[3,1,1] <= 6
 R285: landa[3,1] - sublanda[3,1,3] - 4 s[3,1,2] >= -1
 R286: landa[3,1] - sublanda[3,1,3] + 4 s[3,1,2] <= 7
 R287: sublanda[3,1,0] - s[3,1,0] <= 0
 R288: sublanda[3,1,3] - s[3,1,2] <= 0
 R289: sublanda[3,1,1] - s[3,1,0] - s[3,1,1] <= 0
 R290: sublanda[3,1,2] - s[3,1,1] - s[3,1,2] <= 0
 R291: s[3,1,0] + s[3,1,1] + s[3,1,2] = 1
 R292: sublanda[3,1,0] + sublanda[3,1,1] + sublanda[3,1,2]
   + sublanda[3,1,3] = 1
 seg1: x[3,1,0] - 43.49227321424615 sublanda[3,1,0]
   - 44.93368478214198 sublanda[3,1,1] - 42.90507256701643 sublanda[3,1,2]
   - 40.83782824823503 sublanda[3,1,3] = 0
 seg1: x[3,1,1] - 76.73939391359926 sublanda[3,1,0]
   - 74.46117529744426 sublanda[3,1,1] - 72.68559656032711 sublanda[3,1,2]
   - 74.41604398730234 sublanda[3,1,3] = 0
 u0: landa[4,0] - landa[4,1] + min[4] - max[4] = 0
 u1: min[4] + max[4] = 4
 u2: 4 u[4] + max[4] <= 4
 u3: - 4 u[4] + min[4] <= 0
 R299: dc[4] = 16.32038303848789
 R300: landa[4,0] - sublanda[4,0,1] - 5 s[4,0,0] >= -4
 R301: landa[4,0] - sublanda[4,0,1] + 5 s[4,0,0] <= 6
 R302: landa[4,0] - sublanda[4,0,2] - 5 s[4,0,1] >= -3
 R303: landa[4,0] - sublanda[4,0,2] + 5 s[4,0,1] <= 7
 R304: landa[4,0] - sublanda[4,0,3] - 5 s[4,0,2] >= -2
 R305: landa[4,0] - sublanda[4,0,3] + 5 s[4,0,2] <= 8
 R306: landa[4,0] - sublanda[4,0,4] - 5 s[4,0,3] >= -1
 R307: landa[4,0] - sublanda[4,0,4] + 5 s[4,0,3] <= 9
 R308: sublanda[4,0,0] - s[4,0,0] <= 0
 R309: sublanda[4,0,4] - s[4,0,3] <= 0
 R310: sublanda[4,0,1] - s[4,0,0] - s[4,0,1] <= 0
 R311: sublanda[4,0,2] - s[4,0,1] - s[4,0,2] <= 0
 R312: sublanda[4,0,3] - s[4,0,2] - s[4,0,3] <= 0
 R313: s[4,0,0] + s[4,0,1] + s[4,0,2] + s[4,0,3] = 1
 R314: sublanda[4,0,0] + sublanda[4,0,1] + sublanda[4,0,2]
   + sublanda[4,0,3] + sublanda[4,0,4] = 1
 seg1: x[4,0,0] - 16.14735116225859 sublanda[4,0,0]
   - 13.4734254305556 sublanda[4,0,1] - 16.1058541275758 sublanda[4,0,2]
   - 19.59189174576089 sublanda[4,0,3] - 18.03491576267611 sublanda[4,0,4]
   = 0
 seg1: x[4,0,1] - 35.91452995000942 sublanda[4,0,0]
   - 38.996299342586 sublanda[4,0,1] - 42.11358992300832 sublanda[4,0,2]
   - 39.99351371393384 sublanda[4,0,3] - 36.2221734752677 sublanda[4,0,4]
   = 0
 R317: landa[4,1] - sublanda[4,1,1] - 5 s[4,1,0] >= -4
 R318: landa[4,1] - sublanda[4,1,1] + 5 s[4,1,0] <= 6
 R319: landa[4,1] - sublanda[4,1,2] - 5 s[4,1,1] >= -3
 R320: landa[4,1] - sublanda[4,1,2] + 5 s[4,1,1] <= 7
 R321: landa[4,1] - sublanda[4,1,3] - 5 s[4,1,2] >= -2
 R322: landa[4,1] - sublanda[4,1,3] + 5 s[4,1,2] <= 8
 R323: landa[4,1] - sublanda[4,1,4] - 5 s[4,1,3] >= -1
 R324: landa[4,1] - sublanda[4,1,4] + 5 s[4,1,3] <= 9
 R325: sublanda[4,1,0] - s[4,1,0] <= 0
 R326: sublanda[4,1,4] - s[4,1,3] <= 0
 R327: sublanda[4,1,1] - s[4,1,0] - s[4,1,1] <= 0
 R328: sublanda[4,1,2] - s[4,1,1] - s[4,1,2] <= 0
 R329: sublanda[4,1,3] - s[4,1,2] - s[4,1,3] <= 0
 R330: s[4,1,0] + s[4,1,1] + s[4,1,2] + s[4,1,3] = 1
 R331: sublanda[4,1,0] + sublanda[4,1,1] + sublanda[4,1,2]
   + sublanda[4,1,3] + sublanda[4,1,4] = 1
 seg1: x[4,1,0] - 16.14735116225859 sublanda[4,1,0]
   - 13.4734254305556 sublanda[4,1,1] - 16.1058541275758 sublanda[4,1,2]
   - 19.59189174576089 sublanda[4,1,3] - 18.03491576267611 sublanda[4,1,4]
   = 0
 seg1: x[4,1,1] - 35.91452995000942 sublanda[4,1,0]
   - 38.996299342586 sublanda[4,1,1] - 42.11358992300832 sublanda[4,1,2]
   - 39.99351371393384 sublanda[4,1,3] - 36.2221734752677 sublanda[4,1,4]
   = 0
 qc0: [ - dcc[0,1] ^2 + dif[0,1,0] ^2 + dif[0,1,1] ^2 ] <= 0
 qc1: [ - dcc[0,2] ^2 + dif[0,2,0] ^2 + dif[0,2,1] ^2 ] <= 0
 qc2: [ - dcc[0,3] ^2 + dif[0,3,0] ^2 + dif[0,3,1] ^2 ] <= 0
 qc3: [ - dcc[0,4] ^2 + dif[0,4,0] ^2 + dif[0,4,1] ^2 ] <= 0
 qc4: [ - dcc[1,0] ^2 + dif[1,0,0] ^2 + dif[1,0,1] ^2 ] <= 0
 qc5: [ - dcc[1,2] ^2 + dif[1,2,0] ^2 + dif[1,2,1] ^2 ] <= 0
 qc6: [ - dcc[1,3] ^2 + dif[1,3,0] ^2 + dif[1,3,1] ^2 ] <= 0
 qc7: [ - dcc[1,4] ^2 + dif[1,4,0] ^2 + dif[1,4,1] ^2 ] <= 0
 qc8: [ - dcc[2,0] ^2 + dif[2,0,0] ^2 + dif[2,0,1] ^2 ] <= 0
 qc9: [ - dcc[2,1] ^2 + dif[2,1,0] ^2 + dif[2,1,1] ^2 ] <= 0
 qc10: [ - dcc[2,3] ^2 + dif[2,3,0] ^2 + dif[2,3,1] ^2 ] <= 0
 qc11: [ - dcc[2,4] ^2 + dif[2,4,0] ^2 + dif[2,4,1] ^2 ] <= 0
 qc12: [ - dcc[3,0] ^2 + dif[3,0,0] ^2 + dif[3,0,1] ^2 ] <= 0
 qc13: [ - dcc[3,1] ^2 + dif[3,1,0] ^2 + dif[3,1,1] ^2 ] <= 0
 qc14: [ - dcc[3,2] ^2 + dif[3,2,0] ^2 + dif[3,2,1] ^2 ] <= 0
 qc15: [ - dcc[3,4] ^2 + dif[3,4,0] ^2 + dif[3,4,1] ^2 ] <= 0
 qc16: [ - dcc[4,0] ^2 + dif[4,0,0] ^2 + dif[4,0,1] ^2 ] <= 0
 qc17: [ - dcc[4,1] ^2 + dif[4,1,0] ^2 + dif[4,1,1] ^2 ] <= 0
 qc18: [ - dcc[4,2] ^2 + dif[4,2,0] ^2 + dif[4,2,1] ^2 ] <= 0
 qc19: [ - dcc[4,3] ^2 + dif[4,3,0] ^2 + dif[4,3,1] ^2 ] <= 0
Bounds
 sublanda[0,0,0] <= 1
 sublanda[0,1,0] <= 1
 sublanda[0,0,1] <= 1
 sublanda[0,1,1] <= 1
 sublanda[1,0,0] <= 1
 sublanda[1,1,0] <= 1
 sublanda[1,0,1] <= 1
 sublanda[1,1,1] <= 1
 sublanda[1,0,2] <= 1
 sublanda[1,1,2] <= 1
 sublanda[2,0,0] <= 1
 sublanda[2,1,0] <= 1
 sublanda[2,0,1] <= 1
 sublanda[2,1,1] <= 1
 sublanda[2,0,2] <= 1
 sublanda[2,1,2] <= 1
 sublanda[3,0,0] <= 1
 sublanda[3,1,0] <= 1
 sublanda[3,0,1] <= 1
 sublanda[3,1,1] <= 1
 sublanda[3,0,2] <= 1
 sublanda[3,1,2] <= 1
 sublanda[3,0,3] <= 1
 sublanda[3,1,3] <= 1
 sublanda[4,0,0] <= 1
 sublanda[4,1,0] <= 1
 sublanda[4,0,1] <= 1
 sublanda[4,1,1] <= 1
 sublanda[4,0,2] <= 1
 sublanda[4,1,2] <= 1
 sublanda[4,0,3] <= 1
 sublanda[4,1,3] <= 1
 sublanda[4,0,4] <= 1
 sublanda[4,1,4] <= 1
 sc[0] <= 4
 sc[1] <= 4
 sc[2] <= 4
 sc[3] <= 4
 sc[4] <= 4
Binaries
 z[0,1] z[0,2] z[0,3] z[0,4] z[1,0] z[1,2] z[1,3] z[1,4] z[2,0] z[2,1]
 z[2,3] z[2,4] z[3,0] z[3,1] z[3,2] z[3,4] z[4,0] z[4,1] z[4,2] z[4,3]
 s[0,0,0] s[0,1,0] s[1,0,0] s[1,1,0] s[1,0,1] s[1,1,1] s[2,0,0] s[2,1,0]
 s[2,0,1] s[2,1,1] s[3,0,0] s[3,1,0] s[3,0,1] s[3,1,1] s[3,0,2] s[3,1,2]
 s[4,0,0] s[4,1,0] s[4,0,1] s[4,1,1] s[4,0,2] s[4,1,2] s[4,0,3] s[4,1,3]
 u[0] u[1] u[2] u[3] u[4]
End
